ACTORES = {Actor1, Actor2, Actor3, Actor4, Actor5} ;

Escenas = [| 0,1,0,0,0,0,1,10
           | 0,1,1,1,0,1,1,20
           | 1,1,1,1,0,1,0,5
           | 0,1,1,1,0,0,1,5
           | 1,0,0,0,1,1,0,15|]; 
           
Duracion = [2,1,1,1,3,4,2];


%Ejecución con Gecode

% Orden de las Escenas: [5, 1, 6, 3, 4, 2, 7]
% Costo: 415
% ----------
% ==========
% Finished in 2m 2s